p wcnf 960 1890
2 1 0
2 2 0
2 3 0
2 4 0
2 5 0
2 6 0
2 7 0
2 8 0
2 9 0
2 10 0
2 11 0
2 12 0
2 13 0
2 14 0
2 15 0
2 16 0
2 17 0
2 18 0
2 19 0
2 20 0
2 21 0
2 22 0
2 23 0
2 24 0
2 25 0
2 26 0
2 27 0
2 28 0
2 29 0
2 30 0
4 -31 0
4 -32 0
4 -33 0
4 -34 0
4 -35 0
4 -36 0
4 -37 0
4 -38 0
4 -39 0
4 -40 0
4 -41 0
4 -42 0
4 -43 0
4 -44 0
4 -45 0
4 -46 0
4 -47 0
4 -48 0
4 -49 0
4 -50 0
4 -51 0
4 -52 0
4 -53 0
4 -54 0
4 -55 0
4 -56 0
4 -57 0
4 -58 0
4 -59 0
4 -60 0
2 61 0
2 62 0
2 63 0
2 64 0
2 65 0
2 66 0
2 67 0
2 68 0
2 69 0
2 70 0
2 71 0
2 72 0
2 73 0
2 74 0
2 75 0
2 76 0
2 77 0
2 78 0
2 79 0
2 80 0
2 81 0
2 82 0
2 83 0
2 84 0
2 85 0
2 86 0
2 87 0
2 88 0
2 89 0
2 90 0
2 91 0
2 92 0
2 93 0
2 94 0
2 95 0
2 96 0
2 97 0
2 98 0
2 99 0
2 100 0
2 101 0
2 102 0
2 103 0
2 104 0
2 105 0
2 106 0
2 107 0
2 108 0
2 109 0
2 110 0
2 111 0
2 112 0
2 113 0
2 114 0
2 115 0
2 116 0
2 117 0
2 118 0
2 119 0
2 120 0
2 121 0
2 122 0
2 123 0
2 124 0
2 125 0
2 126 0
2 127 0
2 128 0
2 129 0
2 130 0
2 131 0
2 132 0
2 133 0
2 134 0
2 135 0
2 136 0
2 137 0
2 138 0
2 139 0
2 140 0
2 141 0
2 142 0
2 143 0
2 144 0
2 145 0
2 146 0
2 147 0
2 148 0
2 149 0
2 150 0
2 151 0
2 152 0
2 153 0
2 154 0
2 155 0
2 156 0
2 157 0
2 158 0
2 159 0
2 160 0
2 161 0
2 162 0
2 163 0
2 164 0
2 165 0
2 166 0
2 167 0
2 168 0
2 169 0
2 170 0
2 171 0
2 172 0
2 173 0
2 174 0
2 175 0
2 176 0
2 177 0
2 178 0
2 179 0
2 180 0
2 181 0
2 182 0
2 183 0
2 184 0
2 185 0
2 186 0
2 187 0
2 188 0
2 189 0
2 190 0
2 191 0
2 192 0
2 193 0
2 194 0
2 195 0
2 196 0
2 197 0
2 198 0
2 199 0
2 200 0
2 201 0
2 202 0
2 203 0
2 204 0
2 205 0
2 206 0
2 207 0
2 208 0
2 209 0
2 210 0
2 211 0
2 212 0
2 213 0
2 214 0
2 215 0
2 216 0
2 217 0
2 218 0
2 219 0
2 220 0
2 221 0
2 222 0
2 223 0
2 224 0
2 225 0
2 226 0
2 227 0
2 228 0
2 229 0
2 230 0
2 231 0
2 232 0
2 233 0
2 234 0
2 235 0
2 236 0
2 237 0
2 238 0
2 239 0
2 240 0
2 241 0
2 242 0
2 243 0
2 244 0
2 245 0
2 246 0
2 247 0
2 248 0
2 249 0
2 250 0
2 251 0
2 252 0
2 253 0
2 254 0
2 255 0
2 256 0
2 257 0
2 258 0
2 259 0
2 260 0
2 261 0
2 262 0
2 263 0
2 264 0
2 265 0
2 266 0
2 267 0
2 268 0
2 269 0
2 270 0
2 271 0
2 272 0
2 273 0
2 274 0
2 275 0
2 276 0
2 277 0
2 278 0
2 279 0
2 280 0
2 281 0
2 282 0
2 283 0
2 284 0
2 285 0
2 286 0
2 287 0
2 288 0
2 289 0
2 290 0
2 291 0
2 292 0
2 293 0
2 294 0
2 295 0
2 296 0
2 297 0
2 298 0
2 299 0
2 300 0
2 301 0
2 302 0
2 303 0
2 304 0
2 305 0
2 306 0
2 307 0
2 308 0
2 309 0
2 310 0
2 311 0
2 312 0
2 313 0
2 314 0
2 315 0
2 316 0
2 317 0
2 318 0
2 319 0
2 320 0
2 321 0
2 322 0
2 323 0
2 324 0
2 325 0
2 326 0
2 327 0
2 328 0
2 329 0
2 330 0
2 331 0
2 332 0
2 333 0
2 334 0
2 335 0
2 336 0
2 337 0
2 338 0
2 339 0
2 340 0
2 341 0
2 342 0
2 343 0
2 344 0
2 345 0
2 346 0
2 347 0
2 348 0
2 349 0
2 350 0
2 351 0
2 352 0
2 353 0
2 354 0
2 355 0
2 356 0
2 357 0
2 358 0
2 359 0
2 360 0
2 361 0
2 362 0
2 363 0
2 364 0
2 365 0
2 366 0
2 367 0
2 368 0
2 369 0
2 370 0
2 371 0
2 372 0
2 373 0
2 374 0
2 375 0
2 376 0
2 377 0
2 378 0
2 379 0
2 380 0
2 381 0
2 382 0
2 383 0
2 384 0
2 385 0
2 386 0
2 387 0
2 388 0
2 389 0
2 390 0
2 391 0
2 392 0
2 393 0
2 394 0
2 395 0
2 396 0
2 397 0
2 398 0
2 399 0
2 400 0
2 401 0
2 402 0
2 403 0
2 404 0
2 405 0
2 406 0
2 407 0
2 408 0
2 409 0
2 410 0
2 411 0
2 412 0
2 413 0
2 414 0
2 415 0
2 416 0
2 417 0
2 418 0
2 419 0
2 420 0
2 421 0
2 422 0
2 423 0
2 424 0
2 425 0
2 426 0
2 427 0
2 428 0
2 429 0
2 430 0
2 431 0
2 432 0
2 433 0
2 434 0
2 435 0
2 436 0
2 437 0
2 438 0
2 439 0
2 440 0
2 441 0
2 442 0
2 443 0
2 444 0
2 445 0
2 446 0
2 447 0
2 448 0
2 449 0
2 450 0
2 451 0
2 452 0
2 453 0
2 454 0
2 455 0
2 456 0
2 457 0
2 458 0
2 459 0
2 460 0
2 461 0
2 462 0
2 463 0
2 464 0
2 465 0
2 466 0
2 467 0
2 468 0
2 469 0
2 470 0
2 471 0
2 472 0
2 473 0
2 474 0
2 475 0
2 476 0
2 477 0
2 478 0
2 479 0
2 480 0
2 481 0
2 482 0
2 483 0
2 484 0
2 485 0
2 486 0
2 487 0
2 488 0
2 489 0
2 490 0
2 491 0
2 492 0
2 493 0
2 494 0
2 495 0
2 496 0
2 497 0
2 498 0
2 499 0
2 500 0
2 501 0
2 502 0
2 503 0
2 504 0
2 505 0
2 506 0
2 507 0
2 508 0
2 509 0
2 510 0
2 511 0
2 512 0
2 513 0
2 514 0
2 515 0
2 516 0
2 517 0
2 518 0
2 519 0
2 520 0
2 521 0
2 522 0
2 523 0
2 524 0
2 525 0
2 526 0
2 527 0
2 528 0
2 529 0
2 530 0
2 531 0
2 532 0
2 533 0
2 534 0
2 535 0
2 536 0
2 537 0
2 538 0
2 539 0
2 540 0
2 541 0
2 542 0
2 543 0
2 544 0
2 545 0
2 546 0
2 547 0
2 548 0
2 549 0
2 550 0
2 551 0
2 552 0
2 553 0
2 554 0
2 555 0
2 556 0
2 557 0
2 558 0
2 559 0
2 560 0
2 561 0
2 562 0
2 563 0
2 564 0
2 565 0
2 566 0
2 567 0
2 568 0
2 569 0
2 570 0
2 571 0
2 572 0
2 573 0
2 574 0
2 575 0
2 576 0
2 577 0
2 578 0
2 579 0
2 580 0
2 581 0
2 582 0
2 583 0
2 584 0
2 585 0
2 586 0
2 587 0
2 588 0
2 589 0
2 590 0
2 591 0
2 592 0
2 593 0
2 594 0
2 595 0
2 596 0
2 597 0
2 598 0
2 599 0
2 600 0
2 601 0
2 602 0
2 603 0
2 604 0
2 605 0
2 606 0
2 607 0
2 608 0
2 609 0
2 610 0
2 611 0
2 612 0
2 613 0
2 614 0
2 615 0
2 616 0
2 617 0
2 618 0
2 619 0
2 620 0
2 621 0
2 622 0
2 623 0
2 624 0
2 625 0
2 626 0
2 627 0
2 628 0
2 629 0
2 630 0
2 631 0
2 632 0
2 633 0
2 634 0
2 635 0
2 636 0
2 637 0
2 638 0
2 639 0
2 640 0
2 641 0
2 642 0
2 643 0
2 644 0
2 645 0
2 646 0
2 647 0
2 648 0
2 649 0
2 650 0
2 651 0
2 652 0
2 653 0
2 654 0
2 655 0
2 656 0
2 657 0
2 658 0
2 659 0
2 660 0
2 661 0
2 662 0
2 663 0
2 664 0
2 665 0
2 666 0
2 667 0
2 668 0
2 669 0
2 670 0
2 671 0
2 672 0
2 673 0
2 674 0
2 675 0
2 676 0
2 677 0
2 678 0
2 679 0
2 680 0
2 681 0
2 682 0
2 683 0
2 684 0
2 685 0
2 686 0
2 687 0
2 688 0
2 689 0
2 690 0
2 691 0
2 692 0
2 693 0
2 694 0
2 695 0
2 696 0
2 697 0
2 698 0
2 699 0
2 700 0
2 701 0
2 702 0
2 703 0
2 704 0
2 705 0
2 706 0
2 707 0
2 708 0
2 709 0
2 710 0
2 711 0
2 712 0
2 713 0
2 714 0
2 715 0
2 716 0
2 717 0
2 718 0
2 719 0
2 720 0
2 721 0
2 722 0
2 723 0
2 724 0
2 725 0
2 726 0
2 727 0
2 728 0
2 729 0
2 730 0
2 731 0
2 732 0
2 733 0
2 734 0
2 735 0
2 736 0
2 737 0
2 738 0
2 739 0
2 740 0
2 741 0
2 742 0
2 743 0
2 744 0
2 745 0
2 746 0
2 747 0
2 748 0
2 749 0
2 750 0
2 751 0
2 752 0
2 753 0
2 754 0
2 755 0
2 756 0
2 757 0
2 758 0
2 759 0
2 760 0
2 761 0
2 762 0
2 763 0
2 764 0
2 765 0
2 766 0
2 767 0
2 768 0
2 769 0
2 770 0
2 771 0
2 772 0
2 773 0
2 774 0
2 775 0
2 776 0
2 777 0
2 778 0
2 779 0
2 780 0
2 781 0
2 782 0
2 783 0
2 784 0
2 785 0
2 786 0
2 787 0
2 788 0
2 789 0
2 790 0
2 791 0
2 792 0
2 793 0
2 794 0
2 795 0
2 796 0
2 797 0
2 798 0
2 799 0
2 800 0
2 801 0
2 802 0
2 803 0
2 804 0
2 805 0
2 806 0
2 807 0
2 808 0
2 809 0
2 810 0
2 811 0
2 812 0
2 813 0
2 814 0
2 815 0
2 816 0
2 817 0
2 818 0
2 819 0
2 820 0
2 821 0
2 822 0
2 823 0
2 824 0
2 825 0
2 826 0
2 827 0
2 828 0
2 829 0
2 830 0
2 831 0
2 832 0
2 833 0
2 834 0
2 835 0
2 836 0
2 837 0
2 838 0
2 839 0
2 840 0
2 841 0
2 842 0
2 843 0
2 844 0
2 845 0
2 846 0
2 847 0
2 848 0
2 849 0
2 850 0
2 851 0
2 852 0
2 853 0
2 854 0
2 855 0
2 856 0
2 857 0
2 858 0
2 859 0
2 860 0
2 861 0
2 862 0
2 863 0
2 864 0
2 865 0
2 866 0
2 867 0
2 868 0
2 869 0
2 870 0
2 871 0
2 872 0
2 873 0
2 874 0
2 875 0
2 876 0
2 877 0
2 878 0
2 879 0
2 880 0
2 881 0
2 882 0
2 883 0
2 884 0
2 885 0
2 886 0
2 887 0
2 888 0
2 889 0
2 890 0
2 891 0
2 892 0
2 893 0
2 894 0
2 895 0
2 896 0
2 897 0
2 898 0
2 899 0
2 900 0
2 901 0
2 902 0
2 903 0
2 904 0
2 905 0
2 906 0
2 907 0
2 908 0
2 909 0
2 910 0
2 911 0
2 912 0
2 913 0
2 914 0
2 915 0
2 916 0
2 917 0
2 918 0
2 919 0
2 920 0
2 921 0
2 922 0
2 923 0
2 924 0
2 925 0
2 926 0
2 927 0
2 928 0
2 929 0
2 930 0
2 931 0
2 932 0
2 933 0
2 934 0
2 935 0
2 936 0
2 937 0
2 938 0
2 939 0
2 940 0
2 941 0
2 942 0
2 943 0
2 944 0
2 945 0
2 946 0
2 947 0
2 948 0
2 949 0
2 950 0
2 951 0
2 952 0
2 953 0
2 954 0
2 955 0
2 956 0
2 957 0
2 958 0
2 959 0
2 960 0
3 -1 31 0
3 -2 32 0
3 -3 33 0
3 -4 34 0
3 -5 35 0
3 -6 36 0
3 -7 37 0
3 -8 38 0
3 -9 39 0
3 -10 40 0
3 -11 41 0
3 -12 42 0
3 -13 43 0
3 -14 44 0
3 -15 45 0
3 -16 46 0
3 -17 47 0
3 -18 48 0
3 -19 49 0
3 -20 50 0
3 -21 51 0
3 -22 52 0
3 -23 53 0
3 -24 54 0
3 -25 55 0
3 -26 56 0
3 -27 57 0
3 -28 58 0
3 -29 59 0
3 -30 60 0
4 -1 -61 1 0
4 -1 -91 2 0
4 -1 -121 3 0
4 -1 -151 4 0
4 -1 -181 5 0
4 -1 -211 6 0
4 -1 -241 7 0
4 -1 -271 8 0
4 -1 -301 9 0
4 -1 -331 10 0
4 -1 -361 11 0
4 -1 -391 12 0
4 -1 -421 13 0
4 -1 -451 14 0
4 -1 -481 15 0
4 -1 -511 16 0
4 -1 -541 17 0
4 -1 -571 18 0
4 -1 -601 19 0
4 -1 -631 20 0
4 -1 -661 21 0
4 -1 -691 22 0
4 -1 -721 23 0
4 -1 -751 24 0
4 -1 -781 25 0
4 -1 -811 26 0
4 -1 -841 27 0
4 -1 -871 28 0
4 -1 -901 29 0
4 -1 -931 30 0
4 -2 -62 1 0
4 -2 -92 2 0
4 -2 -122 3 0
4 -2 -152 4 0
4 -2 -182 5 0
4 -2 -212 6 0
4 -2 -242 7 0
4 -2 -272 8 0
4 -2 -302 9 0
4 -2 -332 10 0
4 -2 -362 11 0
4 -2 -392 12 0
4 -2 -422 13 0
4 -2 -452 14 0
4 -2 -482 15 0
4 -2 -512 16 0
4 -2 -542 17 0
4 -2 -572 18 0
4 -2 -602 19 0
4 -2 -632 20 0
4 -2 -662 21 0
4 -2 -692 22 0
4 -2 -722 23 0
4 -2 -752 24 0
4 -2 -782 25 0
4 -2 -812 26 0
4 -2 -842 27 0
4 -2 -872 28 0
4 -2 -902 29 0
4 -2 -932 30 0
4 -3 -63 1 0
4 -3 -93 2 0
4 -3 -123 3 0
4 -3 -153 4 0
4 -3 -183 5 0
4 -3 -213 6 0
4 -3 -243 7 0
4 -3 -273 8 0
4 -3 -303 9 0
4 -3 -333 10 0
4 -3 -363 11 0
4 -3 -393 12 0
4 -3 -423 13 0
4 -3 -453 14 0
4 -3 -483 15 0
4 -3 -513 16 0
4 -3 -543 17 0
4 -3 -573 18 0
4 -3 -603 19 0
4 -3 -633 20 0
4 -3 -663 21 0
4 -3 -693 22 0
4 -3 -723 23 0
4 -3 -753 24 0
4 -3 -783 25 0
4 -3 -813 26 0
4 -3 -843 27 0
4 -3 -873 28 0
4 -3 -903 29 0
4 -3 -933 30 0
4 -4 -64 1 0
4 -4 -94 2 0
4 -4 -124 3 0
4 -4 -154 4 0
4 -4 -184 5 0
4 -4 -214 6 0
4 -4 -244 7 0
4 -4 -274 8 0
4 -4 -304 9 0
4 -4 -334 10 0
4 -4 -364 11 0
4 -4 -394 12 0
4 -4 -424 13 0
4 -4 -454 14 0
4 -4 -484 15 0
4 -4 -514 16 0
4 -4 -544 17 0
4 -4 -574 18 0
4 -4 -604 19 0
4 -4 -634 20 0
4 -4 -664 21 0
4 -4 -694 22 0
4 -4 -724 23 0
4 -4 -754 24 0
4 -4 -784 25 0
4 -4 -814 26 0
4 -4 -844 27 0
4 -4 -874 28 0
4 -4 -904 29 0
4 -4 -934 30 0
4 -5 -65 1 0
4 -5 -95 2 0
4 -5 -125 3 0
4 -5 -155 4 0
4 -5 -185 5 0
4 -5 -215 6 0
4 -5 -245 7 0
4 -5 -275 8 0
4 -5 -305 9 0
4 -5 -335 10 0
4 -5 -365 11 0
4 -5 -395 12 0
4 -5 -425 13 0
4 -5 -455 14 0
4 -5 -485 15 0
4 -5 -515 16 0
4 -5 -545 17 0
4 -5 -575 18 0
4 -5 -605 19 0
4 -5 -635 20 0
4 -5 -665 21 0
4 -5 -695 22 0
4 -5 -725 23 0
4 -5 -755 24 0
4 -5 -785 25 0
4 -5 -815 26 0
4 -5 -845 27 0
4 -5 -875 28 0
4 -5 -905 29 0
4 -5 -935 30 0
4 -6 -66 1 0
4 -6 -96 2 0
4 -6 -126 3 0
4 -6 -156 4 0
4 -6 -186 5 0
4 -6 -216 6 0
4 -6 -246 7 0
4 -6 -276 8 0
4 -6 -306 9 0
4 -6 -336 10 0
4 -6 -366 11 0
4 -6 -396 12 0
4 -6 -426 13 0
4 -6 -456 14 0
4 -6 -486 15 0
4 -6 -516 16 0
4 -6 -546 17 0
4 -6 -576 18 0
4 -6 -606 19 0
4 -6 -636 20 0
4 -6 -666 21 0
4 -6 -696 22 0
4 -6 -726 23 0
4 -6 -756 24 0
4 -6 -786 25 0
4 -6 -816 26 0
4 -6 -846 27 0
4 -6 -876 28 0
4 -6 -906 29 0
4 -6 -936 30 0
4 -7 -67 1 0
4 -7 -97 2 0
4 -7 -127 3 0
4 -7 -157 4 0
4 -7 -187 5 0
4 -7 -217 6 0
4 -7 -247 7 0
4 -7 -277 8 0
4 -7 -307 9 0
4 -7 -337 10 0
4 -7 -367 11 0
4 -7 -397 12 0
4 -7 -427 13 0
4 -7 -457 14 0
4 -7 -487 15 0
4 -7 -517 16 0
4 -7 -547 17 0
4 -7 -577 18 0
4 -7 -607 19 0
4 -7 -637 20 0
4 -7 -667 21 0
4 -7 -697 22 0
4 -7 -727 23 0
4 -7 -757 24 0
4 -7 -787 25 0
4 -7 -817 26 0
4 -7 -847 27 0
4 -7 -877 28 0
4 -7 -907 29 0
4 -7 -937 30 0
4 -8 -68 1 0
4 -8 -98 2 0
4 -8 -128 3 0
4 -8 -158 4 0
4 -8 -188 5 0
4 -8 -218 6 0
4 -8 -248 7 0
4 -8 -278 8 0
4 -8 -308 9 0
4 -8 -338 10 0
4 -8 -368 11 0
4 -8 -398 12 0
4 -8 -428 13 0
4 -8 -458 14 0
4 -8 -488 15 0
4 -8 -518 16 0
4 -8 -548 17 0
4 -8 -578 18 0
4 -8 -608 19 0
4 -8 -638 20 0
4 -8 -668 21 0
4 -8 -698 22 0
4 -8 -728 23 0
4 -8 -758 24 0
4 -8 -788 25 0
4 -8 -818 26 0
4 -8 -848 27 0
4 -8 -878 28 0
4 -8 -908 29 0
4 -8 -938 30 0
4 -9 -69 1 0
4 -9 -99 2 0
4 -9 -129 3 0
4 -9 -159 4 0
4 -9 -189 5 0
4 -9 -219 6 0
4 -9 -249 7 0
4 -9 -279 8 0
4 -9 -309 9 0
4 -9 -339 10 0
4 -9 -369 11 0
4 -9 -399 12 0
4 -9 -429 13 0
4 -9 -459 14 0
4 -9 -489 15 0
4 -9 -519 16 0
4 -9 -549 17 0
4 -9 -579 18 0
4 -9 -609 19 0
4 -9 -639 20 0
4 -9 -669 21 0
4 -9 -699 22 0
4 -9 -729 23 0
4 -9 -759 24 0
4 -9 -789 25 0
4 -9 -819 26 0
4 -9 -849 27 0
4 -9 -879 28 0
4 -9 -909 29 0
4 -9 -939 30 0
4 -10 -70 1 0
4 -10 -100 2 0
4 -10 -130 3 0
4 -10 -160 4 0
4 -10 -190 5 0
4 -10 -220 6 0
4 -10 -250 7 0
4 -10 -280 8 0
4 -10 -310 9 0
4 -10 -340 10 0
4 -10 -370 11 0
4 -10 -400 12 0
4 -10 -430 13 0
4 -10 -460 14 0
4 -10 -490 15 0
4 -10 -520 16 0
4 -10 -550 17 0
4 -10 -580 18 0
4 -10 -610 19 0
4 -10 -640 20 0
4 -10 -670 21 0
4 -10 -700 22 0
4 -10 -730 23 0
4 -10 -760 24 0
4 -10 -790 25 0
4 -10 -820 26 0
4 -10 -850 27 0
4 -10 -880 28 0
4 -10 -910 29 0
4 -10 -940 30 0
4 -11 -71 1 0
4 -11 -101 2 0
4 -11 -131 3 0
4 -11 -161 4 0
4 -11 -191 5 0
4 -11 -221 6 0
4 -11 -251 7 0
4 -11 -281 8 0
4 -11 -311 9 0
4 -11 -341 10 0
4 -11 -371 11 0
4 -11 -401 12 0
4 -11 -431 13 0
4 -11 -461 14 0
4 -11 -491 15 0
4 -11 -521 16 0
4 -11 -551 17 0
4 -11 -581 18 0
4 -11 -611 19 0
4 -11 -641 20 0
4 -11 -671 21 0
4 -11 -701 22 0
4 -11 -731 23 0
4 -11 -761 24 0
4 -11 -791 25 0
4 -11 -821 26 0
4 -11 -851 27 0
4 -11 -881 28 0
4 -11 -911 29 0
4 -11 -941 30 0
4 -12 -72 1 0
4 -12 -102 2 0
4 -12 -132 3 0
4 -12 -162 4 0
4 -12 -192 5 0
4 -12 -222 6 0
4 -12 -252 7 0
4 -12 -282 8 0
4 -12 -312 9 0
4 -12 -342 10 0
4 -12 -372 11 0
4 -12 -402 12 0
4 -12 -432 13 0
4 -12 -462 14 0
4 -12 -492 15 0
4 -12 -522 16 0
4 -12 -552 17 0
4 -12 -582 18 0
4 -12 -612 19 0
4 -12 -642 20 0
4 -12 -672 21 0
4 -12 -702 22 0
4 -12 -732 23 0
4 -12 -762 24 0
4 -12 -792 25 0
4 -12 -822 26 0
4 -12 -852 27 0
4 -12 -882 28 0
4 -12 -912 29 0
4 -12 -942 30 0
4 -13 -73 1 0
4 -13 -103 2 0
4 -13 -133 3 0
4 -13 -163 4 0
4 -13 -193 5 0
4 -13 -223 6 0
4 -13 -253 7 0
4 -13 -283 8 0
4 -13 -313 9 0
4 -13 -343 10 0
4 -13 -373 11 0
4 -13 -403 12 0
4 -13 -433 13 0
4 -13 -463 14 0
4 -13 -493 15 0
4 -13 -523 16 0
4 -13 -553 17 0
4 -13 -583 18 0
4 -13 -613 19 0
4 -13 -643 20 0
4 -13 -673 21 0
4 -13 -703 22 0
4 -13 -733 23 0
4 -13 -763 24 0
4 -13 -793 25 0
4 -13 -823 26 0
4 -13 -853 27 0
4 -13 -883 28 0
4 -13 -913 29 0
4 -13 -943 30 0
4 -14 -74 1 0
4 -14 -104 2 0
4 -14 -134 3 0
4 -14 -164 4 0
4 -14 -194 5 0
4 -14 -224 6 0
4 -14 -254 7 0
4 -14 -284 8 0
4 -14 -314 9 0
4 -14 -344 10 0
4 -14 -374 11 0
4 -14 -404 12 0
4 -14 -434 13 0
4 -14 -464 14 0
4 -14 -494 15 0
4 -14 -524 16 0
4 -14 -554 17 0
4 -14 -584 18 0
4 -14 -614 19 0
4 -14 -644 20 0
4 -14 -674 21 0
4 -14 -704 22 0
4 -14 -734 23 0
4 -14 -764 24 0
4 -14 -794 25 0
4 -14 -824 26 0
4 -14 -854 27 0
4 -14 -884 28 0
4 -14 -914 29 0
4 -14 -944 30 0
4 -15 -75 1 0
4 -15 -105 2 0
4 -15 -135 3 0
4 -15 -165 4 0
4 -15 -195 5 0
4 -15 -225 6 0
4 -15 -255 7 0
4 -15 -285 8 0
4 -15 -315 9 0
4 -15 -345 10 0
4 -15 -375 11 0
4 -15 -405 12 0
4 -15 -435 13 0
4 -15 -465 14 0
4 -15 -495 15 0
4 -15 -525 16 0
4 -15 -555 17 0
4 -15 -585 18 0
4 -15 -615 19 0
4 -15 -645 20 0
4 -15 -675 21 0
4 -15 -705 22 0
4 -15 -735 23 0
4 -15 -765 24 0
4 -15 -795 25 0
4 -15 -825 26 0
4 -15 -855 27 0
4 -15 -885 28 0
4 -15 -915 29 0
4 -15 -945 30 0
4 -16 -76 1 0
4 -16 -106 2 0
4 -16 -136 3 0
4 -16 -166 4 0
4 -16 -196 5 0
4 -16 -226 6 0
4 -16 -256 7 0
4 -16 -286 8 0
4 -16 -316 9 0
4 -16 -346 10 0
4 -16 -376 11 0
4 -16 -406 12 0
4 -16 -436 13 0
4 -16 -466 14 0
4 -16 -496 15 0
4 -16 -526 16 0
4 -16 -556 17 0
4 -16 -586 18 0
4 -16 -616 19 0
4 -16 -646 20 0
4 -16 -676 21 0
4 -16 -706 22 0
4 -16 -736 23 0
4 -16 -766 24 0
4 -16 -796 25 0
4 -16 -826 26 0
4 -16 -856 27 0
4 -16 -886 28 0
4 -16 -916 29 0
4 -16 -946 30 0
4 -17 -77 1 0
4 -17 -107 2 0
4 -17 -137 3 0
4 -17 -167 4 0
4 -17 -197 5 0
4 -17 -227 6 0
4 -17 -257 7 0
4 -17 -287 8 0
4 -17 -317 9 0
4 -17 -347 10 0
4 -17 -377 11 0
4 -17 -407 12 0
4 -17 -437 13 0
4 -17 -467 14 0
4 -17 -497 15 0
4 -17 -527 16 0
4 -17 -557 17 0
4 -17 -587 18 0
4 -17 -617 19 0
4 -17 -647 20 0
4 -17 -677 21 0
4 -17 -707 22 0
4 -17 -737 23 0
4 -17 -767 24 0
4 -17 -797 25 0
4 -17 -827 26 0
4 -17 -857 27 0
4 -17 -887 28 0
4 -17 -917 29 0
4 -17 -947 30 0
4 -18 -78 1 0
4 -18 -108 2 0
4 -18 -138 3 0
4 -18 -168 4 0
4 -18 -198 5 0
4 -18 -228 6 0
4 -18 -258 7 0
4 -18 -288 8 0
4 -18 -318 9 0
4 -18 -348 10 0
4 -18 -378 11 0
4 -18 -408 12 0
4 -18 -438 13 0
4 -18 -468 14 0
4 -18 -498 15 0
4 -18 -528 16 0
4 -18 -558 17 0
4 -18 -588 18 0
4 -18 -618 19 0
4 -18 -648 20 0
4 -18 -678 21 0
4 -18 -708 22 0
4 -18 -738 23 0
4 -18 -768 24 0
4 -18 -798 25 0
4 -18 -828 26 0
4 -18 -858 27 0
4 -18 -888 28 0
4 -18 -918 29 0
4 -18 -948 30 0
4 -19 -79 1 0
4 -19 -109 2 0
4 -19 -139 3 0
4 -19 -169 4 0
4 -19 -199 5 0
4 -19 -229 6 0
4 -19 -259 7 0
4 -19 -289 8 0
4 -19 -319 9 0
4 -19 -349 10 0
4 -19 -379 11 0
4 -19 -409 12 0
4 -19 -439 13 0
4 -19 -469 14 0
4 -19 -499 15 0
4 -19 -529 16 0
4 -19 -559 17 0
4 -19 -589 18 0
4 -19 -619 19 0
4 -19 -649 20 0
4 -19 -679 21 0
4 -19 -709 22 0
4 -19 -739 23 0
4 -19 -769 24 0
4 -19 -799 25 0
4 -19 -829 26 0
4 -19 -859 27 0
4 -19 -889 28 0
4 -19 -919 29 0
4 -19 -949 30 0
4 -20 -80 1 0
4 -20 -110 2 0
4 -20 -140 3 0
4 -20 -170 4 0
4 -20 -200 5 0
4 -20 -230 6 0
4 -20 -260 7 0
4 -20 -290 8 0
4 -20 -320 9 0
4 -20 -350 10 0
4 -20 -380 11 0
4 -20 -410 12 0
4 -20 -440 13 0
4 -20 -470 14 0
4 -20 -500 15 0
4 -20 -530 16 0
4 -20 -560 17 0
4 -20 -590 18 0
4 -20 -620 19 0
4 -20 -650 20 0
4 -20 -680 21 0
4 -20 -710 22 0
4 -20 -740 23 0
4 -20 -770 24 0
4 -20 -800 25 0
4 -20 -830 26 0
4 -20 -860 27 0
4 -20 -890 28 0
4 -20 -920 29 0
4 -20 -950 30 0
4 -21 -81 1 0
4 -21 -111 2 0
4 -21 -141 3 0
4 -21 -171 4 0
4 -21 -201 5 0
4 -21 -231 6 0
4 -21 -261 7 0
4 -21 -291 8 0
4 -21 -321 9 0
4 -21 -351 10 0
4 -21 -381 11 0
4 -21 -411 12 0
4 -21 -441 13 0
4 -21 -471 14 0
4 -21 -501 15 0
4 -21 -531 16 0
4 -21 -561 17 0
4 -21 -591 18 0
4 -21 -621 19 0
4 -21 -651 20 0
4 -21 -681 21 0
4 -21 -711 22 0
4 -21 -741 23 0
4 -21 -771 24 0
4 -21 -801 25 0
4 -21 -831 26 0
4 -21 -861 27 0
4 -21 -891 28 0
4 -21 -921 29 0
4 -21 -951 30 0
4 -22 -82 1 0
4 -22 -112 2 0
4 -22 -142 3 0
4 -22 -172 4 0
4 -22 -202 5 0
4 -22 -232 6 0
4 -22 -262 7 0
4 -22 -292 8 0
4 -22 -322 9 0
4 -22 -352 10 0
4 -22 -382 11 0
4 -22 -412 12 0
4 -22 -442 13 0
4 -22 -472 14 0
4 -22 -502 15 0
4 -22 -532 16 0
4 -22 -562 17 0
4 -22 -592 18 0
4 -22 -622 19 0
4 -22 -652 20 0
4 -22 -682 21 0
4 -22 -712 22 0
4 -22 -742 23 0
4 -22 -772 24 0
4 -22 -802 25 0
4 -22 -832 26 0
4 -22 -862 27 0
4 -22 -892 28 0
4 -22 -922 29 0
4 -22 -952 30 0
4 -23 -83 1 0
4 -23 -113 2 0
4 -23 -143 3 0
4 -23 -173 4 0
4 -23 -203 5 0
4 -23 -233 6 0
4 -23 -263 7 0
4 -23 -293 8 0
4 -23 -323 9 0
4 -23 -353 10 0
4 -23 -383 11 0
4 -23 -413 12 0
4 -23 -443 13 0
4 -23 -473 14 0
4 -23 -503 15 0
4 -23 -533 16 0
4 -23 -563 17 0
4 -23 -593 18 0
4 -23 -623 19 0
4 -23 -653 20 0
4 -23 -683 21 0
4 -23 -713 22 0
4 -23 -743 23 0
4 -23 -773 24 0
4 -23 -803 25 0
4 -23 -833 26 0
4 -23 -863 27 0
4 -23 -893 28 0
4 -23 -923 29 0
4 -23 -953 30 0
4 -24 -84 1 0
4 -24 -114 2 0
4 -24 -144 3 0
4 -24 -174 4 0
4 -24 -204 5 0
4 -24 -234 6 0
4 -24 -264 7 0
4 -24 -294 8 0
4 -24 -324 9 0
4 -24 -354 10 0
4 -24 -384 11 0
4 -24 -414 12 0
4 -24 -444 13 0
4 -24 -474 14 0
4 -24 -504 15 0
4 -24 -534 16 0
4 -24 -564 17 0
4 -24 -594 18 0
4 -24 -624 19 0
4 -24 -654 20 0
4 -24 -684 21 0
4 -24 -714 22 0
4 -24 -744 23 0
4 -24 -774 24 0
4 -24 -804 25 0
4 -24 -834 26 0
4 -24 -864 27 0
4 -24 -894 28 0
4 -24 -924 29 0
4 -24 -954 30 0
4 -25 -85 1 0
4 -25 -115 2 0
4 -25 -145 3 0
4 -25 -175 4 0
4 -25 -205 5 0
4 -25 -235 6 0
4 -25 -265 7 0
4 -25 -295 8 0
4 -25 -325 9 0
4 -25 -355 10 0
4 -25 -385 11 0
4 -25 -415 12 0
4 -25 -445 13 0
4 -25 -475 14 0
4 -25 -505 15 0
4 -25 -535 16 0
4 -25 -565 17 0
4 -25 -595 18 0
4 -25 -625 19 0
4 -25 -655 20 0
4 -25 -685 21 0
4 -25 -715 22 0
4 -25 -745 23 0
4 -25 -775 24 0
4 -25 -805 25 0
4 -25 -835 26 0
4 -25 -865 27 0
4 -25 -895 28 0
4 -25 -925 29 0
4 -25 -955 30 0
4 -26 -86 1 0
4 -26 -116 2 0
4 -26 -146 3 0
4 -26 -176 4 0
4 -26 -206 5 0
4 -26 -236 6 0
4 -26 -266 7 0
4 -26 -296 8 0
4 -26 -326 9 0
4 -26 -356 10 0
4 -26 -386 11 0
4 -26 -416 12 0
4 -26 -446 13 0
4 -26 -476 14 0
4 -26 -506 15 0
4 -26 -536 16 0
4 -26 -566 17 0
4 -26 -596 18 0
4 -26 -626 19 0
4 -26 -656 20 0
4 -26 -686 21 0
4 -26 -716 22 0
4 -26 -746 23 0
4 -26 -776 24 0
4 -26 -806 25 0
4 -26 -836 26 0
4 -26 -866 27 0
4 -26 -896 28 0
4 -26 -926 29 0
4 -26 -956 30 0
4 -27 -87 1 0
4 -27 -117 2 0
4 -27 -147 3 0
4 -27 -177 4 0
4 -27 -207 5 0
4 -27 -237 6 0
4 -27 -267 7 0
4 -27 -297 8 0
4 -27 -327 9 0
4 -27 -357 10 0
4 -27 -387 11 0
4 -27 -417 12 0
4 -27 -447 13 0
4 -27 -477 14 0
4 -27 -507 15 0
4 -27 -537 16 0
4 -27 -567 17 0
4 -27 -597 18 0
4 -27 -627 19 0
4 -27 -657 20 0
4 -27 -687 21 0
4 -27 -717 22 0
4 -27 -747 23 0
4 -27 -777 24 0
4 -27 -807 25 0
4 -27 -837 26 0
4 -27 -867 27 0
4 -27 -897 28 0
4 -27 -927 29 0
4 -27 -957 30 0
4 -28 -88 1 0
4 -28 -118 2 0
4 -28 -148 3 0
4 -28 -178 4 0
4 -28 -208 5 0
4 -28 -238 6 0
4 -28 -268 7 0
4 -28 -298 8 0
4 -28 -328 9 0
4 -28 -358 10 0
4 -28 -388 11 0
4 -28 -418 12 0
4 -28 -448 13 0
4 -28 -478 14 0
4 -28 -508 15 0
4 -28 -538 16 0
4 -28 -568 17 0
4 -28 -598 18 0
4 -28 -628 19 0
4 -28 -658 20 0
4 -28 -688 21 0
4 -28 -718 22 0
4 -28 -748 23 0
4 -28 -778 24 0
4 -28 -808 25 0
4 -28 -838 26 0
4 -28 -868 27 0
4 -28 -898 28 0
4 -28 -928 29 0
4 -28 -958 30 0
4 -29 -89 1 0
4 -29 -119 2 0
4 -29 -149 3 0
4 -29 -179 4 0
4 -29 -209 5 0
4 -29 -239 6 0
4 -29 -269 7 0
4 -29 -299 8 0
4 -29 -329 9 0
4 -29 -359 10 0
4 -29 -389 11 0
4 -29 -419 12 0
4 -29 -449 13 0
4 -29 -479 14 0
4 -29 -509 15 0
4 -29 -539 16 0
4 -29 -569 17 0
4 -29 -599 18 0
4 -29 -629 19 0
4 -29 -659 20 0
4 -29 -689 21 0
4 -29 -719 22 0
4 -29 -749 23 0
4 -29 -779 24 0
4 -29 -809 25 0
4 -29 -839 26 0
4 -29 -869 27 0
4 -29 -899 28 0
4 -29 -929 29 0
4 -29 -959 30 0
4 -30 -90 1 0
4 -30 -120 2 0
4 -30 -150 3 0
4 -30 -180 4 0
4 -30 -210 5 0
4 -30 -240 6 0
4 -30 -270 7 0
4 -30 -300 8 0
4 -30 -330 9 0
4 -30 -360 10 0
4 -30 -390 11 0
4 -30 -420 12 0
4 -30 -450 13 0
4 -30 -480 14 0
4 -30 -510 15 0
4 -30 -540 16 0
4 -30 -570 17 0
4 -30 -600 18 0
4 -30 -630 19 0
4 -30 -660 20 0
4 -30 -690 21 0
4 -30 -720 22 0
4 -30 -750 23 0
4 -30 -780 24 0
4 -30 -810 25 0
4 -30 -840 26 0
4 -30 -870 27 0
4 -30 -900 28 0
4 -30 -930 29 0
4 -30 -960 30 0
